
Starting CP-SAT solver v9.14.6206
Parameters: max_time_in_seconds: 600 log_search_progress: true relative_gap_limit: 0
Setting number of workers to 20

Initial optimization model '': (model_fingerprint: 0x7fb23f724e59a23b)
#Variables: 421 (#ints: 1 in objective) (321 primary variables)
  - 80 in [0,12312]
  - 16 in [0,61560]
  - 1 in [0,196992]
  - 1 in [0,1181952]
  - 2 in [0,1378944]
  - 320 in [1440,12312]
  - 1 constants in {0} 
#kInterval: 160
#kLinMax: 48 (#expressions: 96)
#kLinear1: 17
#kLinear2: 192
#kLinear3: 2
#kLinearN: 2 (#terms: 50)
#kNoOverlap: 10 (#intervals: 160)

Starting presolve at 0.00s
  7.86e-05s  0.00e+00d  [DetectDominanceRelations] 
  2.11e-03s  0.00e+00d  [operations_research::sat::CpModelPresolver::PresolveToFixPoint] #num_loops=10 #num_dual_strengthening=1 
  8.10e-06s  0.00e+00d  [operations_research::sat::CpModelPresolver::ExtractEncodingFromLinear] 
  2.21e-05s  0.00e+00d  [operations_research::sat::CpModelPresolver::DetectDuplicateColumns] 
  1.42e-04s  0.00e+00d  [operations_research::sat::CpModelPresolver::DetectDuplicateConstraints] 
[Symmetry] Graph for symmetry has 980 nodes and 940 arcs.
[Symmetry] Symmetry computation done. time: 0.0001004 dtime: 0.00014152
  8.46e-05s  0.00e+00d  [operations_research::sat::CpModelPresolver::DetectDuplicateConstraintsWithDifferentEnforcements] 
  7.63e-04s  2.30e-06d  [operations_research::sat::CpModelPresolver::Probe] 
  1.01e-05s  0.00e+00d  [MaxClique] 
  5.90e-05s  0.00e+00d  [DetectDominanceRelations] 
  5.12e-04s  0.00e+00d  [operations_research::sat::CpModelPresolver::PresolveToFixPoint] #num_loops=1 #num_dual_strengthening=1 
  4.22e-05s  0.00e+00d  [operations_research::sat::CpModelPresolver::ProcessAtMostOneAndLinear] 
  6.66e-05s  0.00e+00d  [operations_research::sat::CpModelPresolver::DetectDuplicateConstraints] 
  7.17e-05s  0.00e+00d  [operations_research::sat::CpModelPresolver::DetectDuplicateConstraintsWithDifferentEnforcements] 
  4.19e-05s  1.13e-06d  [operations_research::sat::CpModelPresolver::DetectDominatedLinearConstraints] #relevant_constraints=188 
  3.94e-05s  0.00e+00d  [operations_research::sat::CpModelPresolver::DetectDifferentVariables] 
  4.10e-06s  0.00e+00d  [operations_research::sat::CpModelPresolver::ProcessSetPPC] 
  5.20e-06s  0.00e+00d  [operations_research::sat::CpModelPresolver::FindAlmostIdenticalLinearConstraints] 
  1.14e-05s  0.00e+00d  [operations_research::sat::CpModelPresolver::FindBigAtMostOneAndLinearOverlap] 
  2.36e-05s  6.66e-06d  [operations_research::sat::CpModelPresolver::FindBigVerticalLinearOverlap] 
  4.00e-06s  0.00e+00d  [operations_research::sat::CpModelPresolver::FindBigHorizontalLinearOverlap] 
  6.60e-06s  0.00e+00d  [operations_research::sat::CpModelPresolver::MergeClauses] 
  5.54e-05s  0.00e+00d  [DetectDominanceRelations] 
  3.38e-04s  0.00e+00d  [operations_research::sat::CpModelPresolver::PresolveToFixPoint] #num_loops=1 #num_dual_strengthening=1 
  4.91e-05s  0.00e+00d  [DetectDominanceRelations] 
  3.19e-04s  0.00e+00d  [operations_research::sat::CpModelPresolver::PresolveToFixPoint] #num_loops=1 #num_dual_strengthening=1 
  1.84e-05s  0.00e+00d  [operations_research::sat::CpModelPresolver::DetectDuplicateColumns] 
  6.16e-05s  0.00e+00d  [operations_research::sat::CpModelPresolver::DetectDuplicateConstraints] 
[Symmetry] Graph for symmetry has 939 nodes and 856 arcs.
[Symmetry] Symmetry computation done. time: 7.7e-05 dtime: 0.00013535
  6.84e-05s  0.00e+00d  [operations_research::sat::CpModelPresolver::DetectDuplicateConstraintsWithDifferentEnforcements] 
  5.69e-04s  1.86e-06d  [operations_research::sat::CpModelPresolver::Probe] 
  4.40e-06s  0.00e+00d  [MaxClique] 
  5.70e-05s  0.00e+00d  [DetectDominanceRelations] 
  3.34e-04s  0.00e+00d  [operations_research::sat::CpModelPresolver::PresolveToFixPoint] #num_loops=1 #num_dual_strengthening=1 
  6.32e-05s  0.00e+00d  [operations_research::sat::CpModelPresolver::ProcessAtMostOneAndLinear] 
  7.85e-05s  0.00e+00d  [operations_research::sat::CpModelPresolver::DetectDuplicateConstraints] 
  6.25e-05s  0.00e+00d  [operations_research::sat::CpModelPresolver::DetectDuplicateConstraintsWithDifferentEnforcements] 
  3.63e-05s  1.13e-06d  [operations_research::sat::CpModelPresolver::DetectDominatedLinearConstraints] #relevant_constraints=188 
  3.34e-05s  0.00e+00d  [operations_research::sat::CpModelPresolver::DetectDifferentVariables] 
  3.10e-06s  0.00e+00d  [operations_research::sat::CpModelPresolver::ProcessSetPPC] 
  4.20e-06s  0.00e+00d  [operations_research::sat::CpModelPresolver::FindAlmostIdenticalLinearConstraints] 
  1.07e-05s  0.00e+00d  [operations_research::sat::CpModelPresolver::FindBigAtMostOneAndLinearOverlap] 
  3.02e-05s  6.66e-06d  [operations_research::sat::CpModelPresolver::FindBigVerticalLinearOverlap] 
  3.40e-06s  0.00e+00d  [operations_research::sat::CpModelPresolver::FindBigHorizontalLinearOverlap] 
  5.90e-06s  0.00e+00d  [operations_research::sat::CpModelPresolver::MergeClauses] 
  6.33e-05s  0.00e+00d  [DetectDominanceRelations] 
  3.41e-04s  0.00e+00d  [operations_research::sat::CpModelPresolver::PresolveToFixPoint] #num_loops=1 #num_dual_strengthening=1 
  1.43e-05s  0.00e+00d  [operations_research::sat::CpModelPresolver::ExpandObjective] 

Presolve summary:
  - 205 affine relations were detected.
  - rule 'TODO dual: only one blocking constraint?' was applied 288 times.
  - rule 'TODO dual: only one unspecified blocking constraint?' was applied 220 times.
  - rule 'affine: new relation' was applied 205 times.
  - rule 'lin_max: converted to equality' was applied 4 times.
  - rule 'lin_max: removed exprs' was applied 4 times.
  - rule 'lin_max: rewrite with precedences' was applied 44 times.
  - rule 'lin_max: target domain reduced' was applied 48 times.
  - rule 'linear: always true' was applied 65 times.
  - rule 'linear: doubleton free' was applied 2 times.
  - rule 'linear: empty' was applied 4 times.
  - rule 'linear: fixed or dup variables' was applied 13 times.
  - rule 'linear: reduced variable domains' was applied 929 times.
  - rule 'linear: remapped using affine relations' was applied 338 times.
  - rule 'linear: variable substitution 0' was applied 1 time.
  - rule 'linear: variable substitution 1' was applied 2 times.
  - rule 'presolve: 9 unused variables removed.' was applied 1 time.
  - rule 'presolve: iteration' was applied 2 times.

Presolved optimization model '': (model_fingerprint: 0x2e7ecc69cd31677)
#Variables: 204 (#ints: 44 in objective) (160 primary variables)
  - 144 different domains in [0,12291] with a largest complexity of 1.
#kInterval: 160
#kLinear2: 188
#kNoOverlap: 10 (#intervals: 160)
[Symmetry] Graph for symmetry has 722 nodes and 856 arcs.
[Symmetry] Symmetry computation done. time: 6.11e-05 dtime: 0.00012233

Preloading model.
#Bound   0.01s best:inf   next:[0,752351] initial_domain
#Model   0.01s var:204/204 constraints:358/358

Starting search at 0.01s with 20 workers.
13 full problem subsolvers: [core, default_lp, fixed, lb_tree_search, max_lp, no_lp, objective_lb_search, objective_shaving_no_lp, probing, pseudo_costs, quick_restart, quick_restart_no_lp, reduced_costs]
7 first solution subsolvers: [fj(2), fj_lin, fs_random, fs_random_no_lp, fs_random_quick_restart, fs_random_quick_restart_no_lp]
17 interleaved subsolvers: [feasibility_pump, graph_arc_lns, graph_cst_lns, graph_dec_lns, graph_var_lns, lb_relax_lns, ls(2), ls_lin, rins/rens, rnd_cst_lns, rnd_var_lns, scheduling_intervals_lns, scheduling_precedences_lns, scheduling_resource_windows_lns, scheduling_time_window_lns, variables_shaving]
3 helper subsolvers: [neighborhood_helper, synchronization_agent, update_gap_integral]

#1       0.02s best:688   next:[0,687]    core
#Bound   0.02s best:688   next:[8,687]    objective_lb_search
#2       0.03s best:687   next:[8,686]    rnd_cst_lns (d=5.00e-01 s=21 t=0.10 p=0.00 stall=0 h=base) [hint]
#3       0.03s best:137   next:[8,136]    graph_cst_lns (d=5.00e-01 s=24 t=0.10 p=0.00 stall=0 h=base)
#4       0.05s best:55    next:[8,54]     ls_restart_decay(batch:1 lin{mvs:0 evals:29} gen{mvs:22 evals:49} #w_updates:16 #perturb:0)
#Bound   0.05s best:55    next:[9,54]     bool_core (num_cores=1 [cover] a=43 d=2 fixed=9/248 clauses=110)
#Bound   0.05s best:55    next:[10,54]    bool_core (num_cores=1 [cover] a=43 d=2 fixed=10/255 clauses=137)
#Bound   0.05s best:55    next:[11,54]    bool_core (num_cores=1 [cover] a=43 d=2 fixed=11/262 clauses=167)
#5       0.05s best:51    next:[11,50]    ls_restart_perturb(batch:1 lin{mvs:0 evals:0} #w_updates:0 #perturb:0)
#6       0.06s best:11    next:[]         core
#Done    0.06s core

Task timing                                  n [     min,      max]      avg      dev     time         n [     min,      max]      avg      dev    dtime
                             'core':         1 [ 46.73ms,  46.73ms]  46.73ms   0.00ns  46.73ms         1 [  2.65ms,   2.65ms]   2.65ms   0.00ns   2.65ms
                       'default_lp':         1 [ 47.36ms,  47.36ms]  47.36ms   0.00ns  47.36ms         0 [  0.00ns,   0.00ns]   0.00ns   0.00ns   0.00ns
                 'feasibility_pump':         1 [  4.38ms,   4.38ms]   4.38ms   0.00ns   4.38ms         0 [  0.00ns,   0.00ns]   0.00ns   0.00ns   0.00ns
                            'fixed':         1 [ 47.23ms,  47.23ms]  47.23ms   0.00ns  47.23ms         0 [  0.00ns,   0.00ns]   0.00ns   0.00ns   0.00ns
                               'fj':         0 [  0.00ns,   0.00ns]   0.00ns   0.00ns   0.00ns         0 [  0.00ns,   0.00ns]   0.00ns   0.00ns   0.00ns
                               'fj':         1 [ 44.37ms,  44.37ms]  44.37ms   0.00ns  44.37ms         1 [ 25.07ms,  25.07ms]  25.07ms   0.00ns  25.07ms
                           'fj_lin':         0 [  0.00ns,   0.00ns]   0.00ns   0.00ns   0.00ns         0 [  0.00ns,   0.00ns]   0.00ns   0.00ns   0.00ns
                        'fs_random':         1 [  4.56ms,   4.56ms]   4.56ms   0.00ns   4.56ms         0 [  0.00ns,   0.00ns]   0.00ns   0.00ns   0.00ns
                  'fs_random_no_lp':         1 [  4.96ms,   4.96ms]   4.96ms   0.00ns   4.96ms         0 [  0.00ns,   0.00ns]   0.00ns   0.00ns   0.00ns
          'fs_random_quick_restart':         1 [  3.48ms,   3.48ms]   3.48ms   0.00ns   3.48ms         0 [  0.00ns,   0.00ns]   0.00ns   0.00ns   0.00ns
    'fs_random_quick_restart_no_lp':         1 [  5.51ms,   5.51ms]   5.51ms   0.00ns   5.51ms         0 [  0.00ns,   0.00ns]   0.00ns   0.00ns   0.00ns
                    'graph_arc_lns':         1 [ 39.23ms,  39.23ms]  39.23ms   0.00ns  39.23ms         1 [  2.70ms,   2.70ms]   2.70ms   0.00ns   2.70ms
                    'graph_cst_lns':         1 [  8.48ms,   8.48ms]   8.48ms   0.00ns   8.48ms         1 [ 92.47us,  92.47us]  92.47us   0.00ns  92.47us
                    'graph_dec_lns':         1 [  4.08ms,   4.08ms]   4.08ms   0.00ns   4.08ms         1 [ 17.78us,  17.78us]  17.78us   0.00ns  17.78us
                    'graph_var_lns':         1 [ 39.25ms,  39.25ms]  39.25ms   0.00ns  39.25ms         1 [  2.05ms,   2.05ms]   2.05ms   0.00ns   2.05ms
                     'lb_relax_lns':         1 [ 33.61ms,  33.61ms]  33.61ms   0.00ns  33.61ms         0 [  0.00ns,   0.00ns]   0.00ns   0.00ns   0.00ns
                   'lb_tree_search':         1 [ 47.28ms,  47.28ms]  47.28ms   0.00ns  47.28ms         0 [  0.00ns,   0.00ns]   0.00ns   0.00ns   0.00ns
                               'ls':         1 [  1.19ms,   1.19ms]   1.19ms   0.00ns   1.19ms         0 [  0.00ns,   0.00ns]   0.00ns   0.00ns   0.00ns
                               'ls':         1 [  1.51ms,   1.51ms]   1.51ms   0.00ns   1.51ms         1 [299.59us, 299.59us] 299.59us   0.00ns 299.59us
                           'ls_lin':         1 [  8.57ms,   8.57ms]   8.57ms   0.00ns   8.57ms         0 [  0.00ns,   0.00ns]   0.00ns   0.00ns   0.00ns
                           'max_lp':         1 [ 49.01ms,  49.01ms]  49.01ms   0.00ns  49.01ms         1 [  4.08ms,   4.08ms]   4.08ms   0.00ns   4.08ms
                            'no_lp':         1 [ 46.48ms,  46.48ms]  46.48ms   0.00ns  46.48ms         0 [  0.00ns,   0.00ns]   0.00ns   0.00ns   0.00ns
              'objective_lb_search':         1 [ 46.47ms,  46.47ms]  46.47ms   0.00ns  46.47ms         1 [  3.74ms,   3.74ms]   3.74ms   0.00ns   3.74ms
          'objective_shaving_no_lp':         1 [  5.75ms,   5.75ms]   5.75ms   0.00ns   5.75ms         0 [  0.00ns,   0.00ns]   0.00ns   0.00ns   0.00ns
                          'probing':         1 [ 47.06ms,  47.06ms]  47.06ms   0.00ns  47.06ms         0 [  0.00ns,   0.00ns]   0.00ns   0.00ns   0.00ns
                     'pseudo_costs':         1 [ 47.46ms,  47.46ms]  47.46ms   0.00ns  47.46ms         1 [  3.52ms,   3.52ms]   3.52ms   0.00ns   3.52ms
                    'quick_restart':         1 [ 45.96ms,  45.96ms]  45.96ms   0.00ns  45.96ms         0 [  0.00ns,   0.00ns]   0.00ns   0.00ns   0.00ns
              'quick_restart_no_lp':         1 [ 45.31ms,  45.31ms]  45.31ms   0.00ns  45.31ms         0 [  0.00ns,   0.00ns]   0.00ns   0.00ns   0.00ns
                    'reduced_costs':         1 [ 48.65ms,  48.65ms]  48.65ms   0.00ns  48.65ms         0 [  0.00ns,   0.00ns]   0.00ns   0.00ns   0.00ns
                        'rins/rens':         1 [  4.93ms,   4.93ms]   4.93ms   0.00ns   4.93ms         1 [ 18.02us,  18.02us]  18.02us   0.00ns  18.02us
                      'rnd_cst_lns':         1 [  5.10ms,   5.10ms]   5.10ms   0.00ns   5.10ms         1 [ 30.00us,  30.00us]  30.00us   0.00ns  30.00us
                      'rnd_var_lns':         1 [  6.14ms,   6.14ms]   6.14ms   0.00ns   6.14ms         1 [ 17.43us,  17.43us]  17.43us   0.00ns  17.43us
         'scheduling_intervals_lns':         1 [ 33.56ms,  33.56ms]  33.56ms   0.00ns  33.56ms         1 [531.94us, 531.94us] 531.94us   0.00ns 531.94us
       'scheduling_precedences_lns':         1 [ 20.92ms,  20.92ms]  20.92ms   0.00ns  20.92ms         1 [127.68us, 127.68us] 127.68us   0.00ns 127.68us
  'scheduling_resource_windows_lns':         1 [ 12.04ms,  12.04ms]  12.04ms   0.00ns  12.04ms         1 [  1.74us,   1.74us]   1.74us   0.00ns   1.74us
       'scheduling_time_window_lns':         1 [ 32.58ms,  32.58ms]  32.58ms   0.00ns  32.58ms         1 [607.28us, 607.28us] 607.28us   0.00ns 607.28us
                'variables_shaving':         1 [ 15.97ms,  15.97ms]  15.97ms   0.00ns  15.97ms         1 [163.41us, 163.41us] 163.41us   0.00ns 163.41us

Search stats                        Bools  Conflicts  Branches  Restarts  BoolPropag  IntegerPropag
                           'core':    269         11     1'235       398       1'557         17'513
                     'default_lp':    289          3       655       254       2'804         43'491
                          'fixed':    303         27       711       277         639         22'831
                      'fs_random':      0          0         0         0           0              0
                'fs_random_no_lp':      0          0         0         0           0              0
        'fs_random_quick_restart':      0          0         0         0           0              0
  'fs_random_quick_restart_no_lp':      0          0         0         0           0              0
                 'lb_tree_search':  1'200          0       784       784           0          6'121
                         'max_lp':    100         51       407        82         715         22'514
                          'no_lp':    435          6     1'099       257       1'462         33'800
            'objective_lb_search':    213         22       629       245         736         27'458
                        'probing':  1'200          0       766       766           0          5'963
                   'pseudo_costs':    192         15       226         1          48          7'934
                  'quick_restart':    293         13       733       294         851         20'624
            'quick_restart_no_lp':    463          1       902       215       3'340         48'204
                  'reduced_costs':  1'200          0       836       836           0          6'573

SAT stats                           ClassicMinim  LitRemoved  LitLearned  LitForgotten  Subsumed  MClauses  MDecisions  MLitTrue  MSubsumed  MLitRemoved  MReused
                           'core':             0           0           0             0         0         0           0         0          0            0        0
                     'default_lp':             3           4          39             0         0         0           0         0          0            0        0
                          'fixed':             0           0          65             0         0         0           0         0          0            0        0
                      'fs_random':             0           0           0             0         0         0           0         0          0            0        0
                'fs_random_no_lp':             0           0           0             0         0         0           0         0          0            0        0
        'fs_random_quick_restart':             0           0           0             0         0         0           0         0          0            0        0
  'fs_random_quick_restart_no_lp':             0           0           0             0         0         0           0         0          0            0        0
                 'lb_tree_search':             0           0           0             0         0         0           0         0          0            0        0
                         'max_lp':            15          15         344             0         0        11          34         0          2           12        3
                          'no_lp':             0           0          36             0         0         0           0         0          0            0        0
            'objective_lb_search':             0           0          94             0         0         0           0         0          0            0        0
                        'probing':             0           0           0             0         0         0           0         0          0            0        0
                   'pseudo_costs':             2           2          46             0         0         0           0         0          0            0        0
                  'quick_restart':             0           0          30             0         0         2           3         0          0            0        3
            'quick_restart_no_lp':             0           0           1             0         0         0           0         0          0            0        0
                  'reduced_costs':             0           0           0             0         0         0           0         0          0            0        0

Lp stats                  Component  Iterations  AddedCuts  OPTIMAL  DUAL_F.  DUAL_U.
           'default_lp':         16         304          0      695        0        0
                'fixed':         16         347          0      512        0        0
       'lb_tree_search':          1           0          0        0        0        0
               'max_lp':          1         212         30       89        0        0
  'objective_lb_search':         16         260          0      422        0        0
              'probing':         16           0          0        0        0        0
         'pseudo_costs':          1         386        370      100        4        0
        'quick_restart':         16         345          0      537        0        0
        'reduced_costs':          1           0          0        0        0        0

Lp dimension              Final dimension of first component
           'default_lp':     10 rows, 13 columns, 20 entries
                'fixed':     10 rows, 13 columns, 20 entries
       'lb_tree_search':  188 rows, 204 columns, 376 entries
               'max_lp':  211 rows, 204 columns, 438 entries
  'objective_lb_search':     10 rows, 13 columns, 20 entries
              'probing':       0 rows, 13 columns, 0 entries
         'pseudo_costs':  178 rows, 204 columns, 405 entries
        'quick_restart':     10 rows, 13 columns, 20 entries
        'reduced_costs':      0 rows, 204 columns, 0 entries

Lp debug                  CutPropag  CutEqPropag  Adjust  Overflow  Bad  BadScaling
           'default_lp':          0            0       0         0    0           0
                'fixed':          0            0       0         0    0           0
       'lb_tree_search':          0            0       0         0    0           0
               'max_lp':          0            0       0         0  792           0
  'objective_lb_search':          0            0       0         0    0           0
              'probing':          0            0       0         0    0           0
         'pseudo_costs':          0            0       0         0  119           0
        'quick_restart':          0            0       0         0    0           0
        'reduced_costs':          0            0       0         0    0           0

Lp pool                   Constraints  Updates  Simplif  Merged  Shortened  Split  Strenghtened  Cuts/Call
           'default_lp':          188        0        0       0          0      0             0        0/0
                'fixed':          188        0        1       0          0      0             0        0/0
       'lb_tree_search':          188        0        0       0          0      0             0        0/0
               'max_lp':          218        0        0       0          0      0             0      30/50
  'objective_lb_search':          188        0        0       0          0      0             0        0/0
              'probing':          188        0        0       0          0      0             0        0/0
         'pseudo_costs':          546       13      286      12          0      0             0    370/524
        'quick_restart':          188        0        2       0          0      0             0        0/0
        'reduced_costs':          188        0        0       0          0      0             0        0/0

Lp Cut                                                max_lp  pseudo_costs
                                               CG_R:       -             1
                                            MIR_1_K:       -             2
                                            MIR_1_R:       -            10
                  NoOverlapCompletionTimeExhaustive:       2            12
           NoOverlapCompletionTimeExhaustive_lifted:       1            16
  NoOverlapCompletionTimeExhaustive_lifted_weighted:       4            51
         NoOverlapCompletionTimeExhaustive_weighted:       5            26
                    NoOverlapCompletionTimeQueyrane:       2            49
             NoOverlapCompletionTimeQueyrane_lifted:       2            81
                        NoOverlapDetectedPrecedence:       -             3
                        NoOverlapDisjunctionOnStart:      14           118
                                        ZERO_HALF_R:       -             1

LNS stats                             Improv/Calls  Closed  Difficulty  TimeLimit
                    'graph_arc_lns':           1/1      0%    2.93e-01       0.10
                    'graph_cst_lns':           1/1    100%    7.07e-01       0.10
                    'graph_dec_lns':           1/1    100%    7.07e-01       0.10
                    'graph_var_lns':           1/1      0%    2.93e-01       0.10
                     'lb_relax_lns':           0/0      0%    5.00e-01       0.50
                        'rins/rens':           1/1    100%    7.07e-01       0.10
                      'rnd_cst_lns':           1/1    100%    7.07e-01       0.10
                      'rnd_var_lns':           1/1    100%    7.07e-01       0.10
         'scheduling_intervals_lns':           0/1      0%    2.93e-01       0.10
       'scheduling_precedences_lns':           1/1      0%    2.93e-01       0.10
  'scheduling_resource_windows_lns':           1/1    100%    7.07e-01       0.10
       'scheduling_time_window_lns':           1/1      0%    2.93e-01       0.10

LS stats                 Batches  Restarts/Perturbs  LinMoves  GenMoves  CompoundMoves  Bactracks  WeightUpdates  ScoreComputed
          'fj_restart':        1                  1       130       291              0          0             23         78'421
    'ls_restart_decay':        1                  1         0        22              0          0             16            881
  'ls_restart_perturb':        1                  1         0         0              0          0              0              0

Solutions (6)            Num   Rank
                'core':    2  [1,6]
       'graph_cst_lns':    1  [3,3]
    'ls_restart_decay':    1  [4,4]
  'ls_restart_perturb':    1  [5,5]
         'rnd_cst_lns':    1  [2,2]

Objective bounds          Num
            'bool_core':    3
       'initial_domain':    1
  'objective_lb_search':    1

Solution repositories    Added  Queried  Synchro
  'feasible solutions':     32       27       12
   'fj solution hints':      0        0        0
        'lp solutions':      3        1        3
                'pump':      0        0

Improving bounds shared    Num  Sym
                 'fixed':  197    0
                 'no_lp':  209    0
   'objective_lb_search':   18    0
         'quick_restart':  302    0
   'quick_restart_no_lp':  209    0

CpSolverResponse summary:
status: OPTIMAL
objective: 11
best_bound: 11
integers: 204
booleans: 0
conflicts: 0
branches: 0
propagations: 0
integer_propagations: 0
restarts: 0
lp_iterations: 0
walltime: 0.0743881
usertime: 0.0743881
deterministic_time: 0.0457297
gap_integral: 0.0134135
solution_fingerprint: 0xb52837553f54c234

